Minimize
	value: tt

Subject to
tt + 1000 s_1_1 > 0.0
tt - t_1_1 - 1004.786814 s_1_1  + 4.786814 s_1_7  > -962.179200
tt + 1000 s_2_1 > 0.0
tt - t_2_1 - 1004.842351 s_2_1  + 4.842351 s_2_7  > -959.870100
tt + 1000 s_1_2 > 0.0
tt - t_1_2 - 1004.786814 s_1_2  + 4.786814 s_1_8  > -957.445800
tt + 1000 s_2_2 > 0.0
tt - t_2_2 - 1004.842351 s_2_2  + 4.842351 s_2_8  > -955.059200
tt + 1000 s_1_3 > 0.0
tt - t_1_3 - 1004.786814 s_1_3  + 4.786814 s_1_8  > -937.877200
tt + 1000 s_2_3 > 0.0
tt - t_2_3 - 1004.842351 s_2_3  + 4.842351 s_2_8  > -932.855400
tt + 1000 s_1_4 > 0.0
tt - t_1_4 - 1007.579584 s_1_4  + 2.792770 s_1_3  + 4.786814 s_1_8  > -967.730800
tt + 1000 s_2_4 > 0.0
tt - t_2_4 - 1007.309677 s_2_4  + 2.467325 s_2_3  + 4.842351 s_2_8  > -964.684600
tt + 1000 s_1_5 > 0.0
tt - t_1_5 - 1009.573628 s_1_5  + 4.786814 s_1_7  + 4.786814 s_1_8  > -953.760600
tt + 1000 s_2_5 > 0.0
tt - t_2_5 - 1009.684703 s_2_5  + 4.842351 s_2_7  + 4.842351 s_2_8  > -951.838400
tt + 1000 s_1_6 > 0.0
tt - t_1_6 - 1013.963851 s_1_6  + 2.792770 s_1_1  + 2.792770 s_1_5  + 2.792770 s_1_2  + 2.792770 s_1_3  + 2.792770 s_1_4  > -997.863000
tt + 1000 s_2_6 > 0.0
tt - t_2_6 - 1012.336626 s_2_6  + 2.467325 s_2_1  + 2.467325 s_2_5  + 2.467325 s_2_2  + 2.467325 s_2_3  + 2.467325 s_2_4  > -967.575400
tt + 1000 s_1_7 > 0.0
tt - t_1_7 - 1000.000000 s_1_7  > -859.118200
tt + 1000 s_2_7 > 0.0
tt - t_2_7 - 1000.000000 s_2_7  > -888.248200
tt + 1000 s_1_8 > 0.0
tt - t_1_8 - 1000.000000 s_1_8  > -859.123400
tt + 1000 s_2_8 > 0.0
tt - t_2_8 - 1000.000000 s_2_8  > -887.901800
s_1_1 + s_2_1 = 1
s_1_2 + s_2_2 = 1
s_1_3 + s_2_3 = 1
s_1_4 + s_2_4 = 1
s_1_5 + s_2_5 = 1
s_1_6 + s_2_6 = 1
s_1_7 + s_2_7 = 1
s_1_8 + s_2_8 = 1
s_1_1 + s_1_2 + 1000 r_1_1_2 >= 2
- s_1_1 - s_1_2 - 1000 r_1_1_2 >= -1001
t_1_1 - t_1_2 - 1000.000000 u_1_1_2 - 4.786814 s_1_2  + 4.786814 s_1_8  + 2000.000000 r_1_1_2 > -957.445800
s_2_1 + s_2_2 + 1000 r_2_1_2 >= 2
- s_2_1 - s_2_2 - 1000 r_2_1_2 >= -1001
t_2_1 - t_2_2 - 1000.000000 u_2_1_2 - 4.842351 s_2_2  + 4.842351 s_2_8  + 2000.000000 r_2_1_2 > -955.059200
s_1_1 + s_1_3 + 1000 r_1_1_3 >= 2
- s_1_1 - s_1_3 - 1000 r_1_1_3 >= -1001
t_1_1 - t_1_3 - 1000.000000 u_1_1_3 - 4.786814 s_1_3  + 4.786814 s_1_8  + 2000.000000 r_1_1_3 > -937.877200
s_2_1 + s_2_3 + 1000 r_2_1_3 >= 2
- s_2_1 - s_2_3 - 1000 r_2_1_3 >= -1001
t_2_1 - t_2_3 - 1000.000000 u_2_1_3 - 4.842351 s_2_3  + 4.842351 s_2_8  + 2000.000000 r_2_1_3 > -932.855400
s_1_1 + s_1_4 + 1000 r_1_1_4 >= 2
- s_1_1 - s_1_4 - 1000 r_1_1_4 >= -1001
t_1_1 - t_1_4 - 1000.000000 u_1_1_4 - 7.579584 s_1_4  + 2.792770 s_1_3  + 4.786814 s_1_8  + 2000.000000 r_1_1_4 > -967.730800
s_2_1 + s_2_4 + 1000 r_2_1_4 >= 2
- s_2_1 - s_2_4 - 1000 r_2_1_4 >= -1001
t_2_1 - t_2_4 - 1000.000000 u_2_1_4 - 7.309677 s_2_4  + 2.467325 s_2_3  + 4.842351 s_2_8  + 2000.000000 r_2_1_4 > -964.684600
s_1_1 + s_1_5 + 1000 r_1_1_5 >= 2
- s_1_1 - s_1_5 - 1000 r_1_1_5 >= -1001
t_1_1 - t_1_5 - 1000.000000 u_1_1_5 - 9.573628 s_1_5  + 4.786814 s_1_7  + 4.786814 s_1_8  + 2000.000000 r_1_1_5 > -953.760600
s_2_1 + s_2_5 + 1000 r_2_1_5 >= 2
- s_2_1 - s_2_5 - 1000 r_2_1_5 >= -1001
t_2_1 - t_2_5 - 1000.000000 u_2_1_5 - 9.684703 s_2_5  + 4.842351 s_2_7  + 4.842351 s_2_8  + 2000.000000 r_2_1_5 > -951.838400
t_1_6 - t_1_1 - 1004.786814 s_1_1  + 4.786814 s_1_7  > -962.179200
t_1_6 - t_2_1 - 1004.842351 s_2_1  + 4.842351 s_2_7  > -959.870100
t_2_6 - t_1_1 - 1004.786814 s_1_1  + 4.786814 s_1_7  > -962.179200
t_2_6 - t_2_1 - 1004.842351 s_2_1  + 4.842351 s_2_7  > -959.870100
t_1_1 - t_1_7 - 1000.000000 s_1_7  > -859.118200
t_1_1 - t_2_7 - 1000.000000 s_2_7  > -888.248200
t_2_1 - t_1_7 - 1000.000000 s_1_7  > -859.118200
t_2_1 - t_2_7 - 1000.000000 s_2_7  > -888.248200
s_1_1 + s_1_8 + 1000 r_1_1_8 >= 2
- s_1_1 - s_1_8 - 1000 r_1_1_8 >= -1001
t_1_1 - t_1_8 - 1000.000000 u_1_1_8 - 0.000000 s_1_8  + 2000.000000 r_1_1_8 > -859.123400
s_2_1 + s_2_8 + 1000 r_2_1_8 >= 2
- s_2_1 - s_2_8 - 1000 r_2_1_8 >= -1001
t_2_1 - t_2_8 - 1000.000000 u_2_1_8 - 0.000000 s_2_8  + 2000.000000 r_2_1_8 > -887.901800
s_1_2 + s_1_1 + 1000 r_1_1_2 >= 2
- s_1_2 - s_1_1 - 1000 r_1_1_2 >= -1001
t_1_2 - t_1_1 + 1000.000000 u_1_1_2 - 4.786814 s_1_1  + 4.786814 s_1_7  + 2000.000000 r_1_1_2 > 37.820800
s_2_2 + s_2_1 + 1000 r_2_1_2 >= 2
- s_2_2 - s_2_1 - 1000 r_2_1_2 >= -1001
t_2_2 - t_2_1 + 1000.000000 u_2_1_2 - 4.842351 s_2_1  + 4.842351 s_2_7  + 2000.000000 r_2_1_2 > 40.129900
s_1_2 + s_1_3 + 1000 r_1_2_3 >= 2
- s_1_2 - s_1_3 - 1000 r_1_2_3 >= -1001
t_1_2 - t_1_3 - 1000.000000 u_1_2_3 - 4.786814 s_1_3  + 4.786814 s_1_8  + 2000.000000 r_1_2_3 > -937.877200
s_2_2 + s_2_3 + 1000 r_2_2_3 >= 2
- s_2_2 - s_2_3 - 1000 r_2_2_3 >= -1001
t_2_2 - t_2_3 - 1000.000000 u_2_2_3 - 4.842351 s_2_3  + 4.842351 s_2_8  + 2000.000000 r_2_2_3 > -932.855400
s_1_2 + s_1_4 + 1000 r_1_2_4 >= 2
- s_1_2 - s_1_4 - 1000 r_1_2_4 >= -1001
t_1_2 - t_1_4 - 1000.000000 u_1_2_4 - 7.579584 s_1_4  + 2.792770 s_1_3  + 4.786814 s_1_8  + 2000.000000 r_1_2_4 > -967.730800
s_2_2 + s_2_4 + 1000 r_2_2_4 >= 2
- s_2_2 - s_2_4 - 1000 r_2_2_4 >= -1001
t_2_2 - t_2_4 - 1000.000000 u_2_2_4 - 7.309677 s_2_4  + 2.467325 s_2_3  + 4.842351 s_2_8  + 2000.000000 r_2_2_4 > -964.684600
s_1_2 + s_1_5 + 1000 r_1_2_5 >= 2
- s_1_2 - s_1_5 - 1000 r_1_2_5 >= -1001
t_1_2 - t_1_5 - 1000.000000 u_1_2_5 - 9.573628 s_1_5  + 4.786814 s_1_7  + 4.786814 s_1_8  + 2000.000000 r_1_2_5 > -953.760600
s_2_2 + s_2_5 + 1000 r_2_2_5 >= 2
- s_2_2 - s_2_5 - 1000 r_2_2_5 >= -1001
t_2_2 - t_2_5 - 1000.000000 u_2_2_5 - 9.684703 s_2_5  + 4.842351 s_2_7  + 4.842351 s_2_8  + 2000.000000 r_2_2_5 > -951.838400
t_1_6 - t_1_2 - 1004.786814 s_1_2  + 4.786814 s_1_8  > -957.445800
t_1_6 - t_2_2 - 1004.842351 s_2_2  + 4.842351 s_2_8  > -955.059200
t_2_6 - t_1_2 - 1004.786814 s_1_2  + 4.786814 s_1_8  > -957.445800
t_2_6 - t_2_2 - 1004.842351 s_2_2  + 4.842351 s_2_8  > -955.059200
s_1_2 + s_1_7 + 1000 r_1_2_7 >= 2
- s_1_2 - s_1_7 - 1000 r_1_2_7 >= -1001
t_1_2 - t_1_7 - 1000.000000 u_1_2_7 - 0.000000 s_1_7  + 2000.000000 r_1_2_7 > -859.118200
s_2_2 + s_2_7 + 1000 r_2_2_7 >= 2
- s_2_2 - s_2_7 - 1000 r_2_2_7 >= -1001
t_2_2 - t_2_7 - 1000.000000 u_2_2_7 - 0.000000 s_2_7  + 2000.000000 r_2_2_7 > -888.248200
t_1_2 - t_1_8 - 1000.000000 s_1_8  > -859.123400
t_1_2 - t_2_8 - 1000.000000 s_2_8  > -887.901800
t_2_2 - t_1_8 - 1000.000000 s_1_8  > -859.123400
t_2_2 - t_2_8 - 1000.000000 s_2_8  > -887.901800
s_1_3 + s_1_1 + 1000 r_1_1_3 >= 2
- s_1_3 - s_1_1 - 1000 r_1_1_3 >= -1001
t_1_3 - t_1_1 + 1000.000000 u_1_1_3 - 4.786814 s_1_1  + 4.786814 s_1_7  + 2000.000000 r_1_1_3 > 37.820800
s_2_3 + s_2_1 + 1000 r_2_1_3 >= 2
- s_2_3 - s_2_1 - 1000 r_2_1_3 >= -1001
t_2_3 - t_2_1 + 1000.000000 u_2_1_3 - 4.842351 s_2_1  + 4.842351 s_2_7  + 2000.000000 r_2_1_3 > 40.129900
s_1_3 + s_1_2 + 1000 r_1_2_3 >= 2
- s_1_3 - s_1_2 - 1000 r_1_2_3 >= -1001
t_1_3 - t_1_2 + 1000.000000 u_1_2_3 - 4.786814 s_1_2  + 4.786814 s_1_8  + 2000.000000 r_1_2_3 > 42.554200
s_2_3 + s_2_2 + 1000 r_2_2_3 >= 2
- s_2_3 - s_2_2 - 1000 r_2_2_3 >= -1001
t_2_3 - t_2_2 + 1000.000000 u_2_2_3 - 4.842351 s_2_2  + 4.842351 s_2_8  + 2000.000000 r_2_2_3 > 44.940800
t_1_4 - t_1_3 - 1004.786814 s_1_3  + 4.786814 s_1_8  > -937.877200
t_1_4 - t_2_3 - 1004.842351 s_2_3  + 4.842351 s_2_8  > -932.855400
t_2_4 - t_1_3 - 1004.786814 s_1_3  + 4.786814 s_1_8  > -937.877200
t_2_4 - t_2_3 - 1004.842351 s_2_3  + 4.842351 s_2_8  > -932.855400
s_1_3 + s_1_5 + 1000 r_1_3_5 >= 2
- s_1_3 - s_1_5 - 1000 r_1_3_5 >= -1001
t_1_3 - t_1_5 - 1000.000000 u_1_3_5 - 9.573628 s_1_5  + 4.786814 s_1_7  + 4.786814 s_1_8  + 2000.000000 r_1_3_5 > -953.760600
s_2_3 + s_2_5 + 1000 r_2_3_5 >= 2
- s_2_3 - s_2_5 - 1000 r_2_3_5 >= -1001
t_2_3 - t_2_5 - 1000.000000 u_2_3_5 - 9.684703 s_2_5  + 4.842351 s_2_7  + 4.842351 s_2_8  + 2000.000000 r_2_3_5 > -951.838400
t_1_6 - t_1_3 - 1004.786814 s_1_3  + 4.786814 s_1_8  > -937.877200
t_1_6 - t_2_3 - 1004.842351 s_2_3  + 4.842351 s_2_8  > -932.855400
t_2_6 - t_1_3 - 1004.786814 s_1_3  + 4.786814 s_1_8  > -937.877200
t_2_6 - t_2_3 - 1004.842351 s_2_3  + 4.842351 s_2_8  > -932.855400
s_1_3 + s_1_7 + 1000 r_1_3_7 >= 2
- s_1_3 - s_1_7 - 1000 r_1_3_7 >= -1001
t_1_3 - t_1_7 - 1000.000000 u_1_3_7 - 0.000000 s_1_7  + 2000.000000 r_1_3_7 > -859.118200
s_2_3 + s_2_7 + 1000 r_2_3_7 >= 2
- s_2_3 - s_2_7 - 1000 r_2_3_7 >= -1001
t_2_3 - t_2_7 - 1000.000000 u_2_3_7 - 0.000000 s_2_7  + 2000.000000 r_2_3_7 > -888.248200
t_1_3 - t_1_8 - 1000.000000 s_1_8  > -859.123400
t_1_3 - t_2_8 - 1000.000000 s_2_8  > -887.901800
t_2_3 - t_1_8 - 1000.000000 s_1_8  > -859.123400
t_2_3 - t_2_8 - 1000.000000 s_2_8  > -887.901800
s_1_4 + s_1_1 + 1000 r_1_1_4 >= 2
- s_1_4 - s_1_1 - 1000 r_1_1_4 >= -1001
t_1_4 - t_1_1 + 1000.000000 u_1_1_4 - 4.786814 s_1_1  + 4.786814 s_1_7  + 2000.000000 r_1_1_4 > 37.820800
s_2_4 + s_2_1 + 1000 r_2_1_4 >= 2
- s_2_4 - s_2_1 - 1000 r_2_1_4 >= -1001
t_2_4 - t_2_1 + 1000.000000 u_2_1_4 - 4.842351 s_2_1  + 4.842351 s_2_7  + 2000.000000 r_2_1_4 > 40.129900
s_1_4 + s_1_2 + 1000 r_1_2_4 >= 2
- s_1_4 - s_1_2 - 1000 r_1_2_4 >= -1001
t_1_4 - t_1_2 + 1000.000000 u_1_2_4 - 4.786814 s_1_2  + 4.786814 s_1_8  + 2000.000000 r_1_2_4 > 42.554200
s_2_4 + s_2_2 + 1000 r_2_2_4 >= 2
- s_2_4 - s_2_2 - 1000 r_2_2_4 >= -1001
t_2_4 - t_2_2 + 1000.000000 u_2_2_4 - 4.842351 s_2_2  + 4.842351 s_2_8  + 2000.000000 r_2_2_4 > 44.940800
s_1_4 + s_1_5 + 1000 r_1_4_5 >= 2
- s_1_4 - s_1_5 - 1000 r_1_4_5 >= -1001
t_1_4 - t_1_5 - 1000.000000 u_1_4_5 - 9.573628 s_1_5  + 4.786814 s_1_7  + 4.786814 s_1_8  + 2000.000000 r_1_4_5 > -953.760600
s_2_4 + s_2_5 + 1000 r_2_4_5 >= 2
- s_2_4 - s_2_5 - 1000 r_2_4_5 >= -1001
t_2_4 - t_2_5 - 1000.000000 u_2_4_5 - 9.684703 s_2_5  + 4.842351 s_2_7  + 4.842351 s_2_8  + 2000.000000 r_2_4_5 > -951.838400
t_1_6 - t_1_4 - 1007.579584 s_1_4  + 2.792770 s_1_3  + 4.786814 s_1_8  > -967.730800
t_1_6 - t_2_4 - 1007.309677 s_2_4  + 2.467325 s_2_3  + 4.842351 s_2_8  > -964.684600
t_2_6 - t_1_4 - 1007.579584 s_1_4  + 2.792770 s_1_3  + 4.786814 s_1_8  > -967.730800
t_2_6 - t_2_4 - 1007.309677 s_2_4  + 2.467325 s_2_3  + 4.842351 s_2_8  > -964.684600
s_1_4 + s_1_7 + 1000 r_1_4_7 >= 2
- s_1_4 - s_1_7 - 1000 r_1_4_7 >= -1001
t_1_4 - t_1_7 - 1000.000000 u_1_4_7 - 0.000000 s_1_7  + 2000.000000 r_1_4_7 > -859.118200
s_2_4 + s_2_7 + 1000 r_2_4_7 >= 2
- s_2_4 - s_2_7 - 1000 r_2_4_7 >= -1001
t_2_4 - t_2_7 - 1000.000000 u_2_4_7 - 0.000000 s_2_7  + 2000.000000 r_2_4_7 > -888.248200
t_1_4 - t_1_8 - 1000.000000 s_1_8  > -859.123400
t_1_4 - t_2_8 - 1000.000000 s_2_8  > -887.901800
t_2_4 - t_1_8 - 1000.000000 s_1_8  > -859.123400
t_2_4 - t_2_8 - 1000.000000 s_2_8  > -887.901800
s_1_5 + s_1_1 + 1000 r_1_1_5 >= 2
- s_1_5 - s_1_1 - 1000 r_1_1_5 >= -1001
t_1_5 - t_1_1 + 1000.000000 u_1_1_5 - 4.786814 s_1_1  + 4.786814 s_1_7  + 2000.000000 r_1_1_5 > 37.820800
s_2_5 + s_2_1 + 1000 r_2_1_5 >= 2
- s_2_5 - s_2_1 - 1000 r_2_1_5 >= -1001
t_2_5 - t_2_1 + 1000.000000 u_2_1_5 - 4.842351 s_2_1  + 4.842351 s_2_7  + 2000.000000 r_2_1_5 > 40.129900
s_1_5 + s_1_2 + 1000 r_1_2_5 >= 2
- s_1_5 - s_1_2 - 1000 r_1_2_5 >= -1001
t_1_5 - t_1_2 + 1000.000000 u_1_2_5 - 4.786814 s_1_2  + 4.786814 s_1_8  + 2000.000000 r_1_2_5 > 42.554200
s_2_5 + s_2_2 + 1000 r_2_2_5 >= 2
- s_2_5 - s_2_2 - 1000 r_2_2_5 >= -1001
t_2_5 - t_2_2 + 1000.000000 u_2_2_5 - 4.842351 s_2_2  + 4.842351 s_2_8  + 2000.000000 r_2_2_5 > 44.940800
s_1_5 + s_1_3 + 1000 r_1_3_5 >= 2
- s_1_5 - s_1_3 - 1000 r_1_3_5 >= -1001
t_1_5 - t_1_3 + 1000.000000 u_1_3_5 - 4.786814 s_1_3  + 4.786814 s_1_8  + 2000.000000 r_1_3_5 > 62.122800
s_2_5 + s_2_3 + 1000 r_2_3_5 >= 2
- s_2_5 - s_2_3 - 1000 r_2_3_5 >= -1001
t_2_5 - t_2_3 + 1000.000000 u_2_3_5 - 4.842351 s_2_3  + 4.842351 s_2_8  + 2000.000000 r_2_3_5 > 67.144600
s_1_5 + s_1_4 + 1000 r_1_4_5 >= 2
- s_1_5 - s_1_4 - 1000 r_1_4_5 >= -1001
t_1_5 - t_1_4 + 1000.000000 u_1_4_5 - 7.579584 s_1_4  + 2.792770 s_1_3  + 4.786814 s_1_8  + 2000.000000 r_1_4_5 > 32.269200
s_2_5 + s_2_4 + 1000 r_2_4_5 >= 2
- s_2_5 - s_2_4 - 1000 r_2_4_5 >= -1001
t_2_5 - t_2_4 + 1000.000000 u_2_4_5 - 7.309677 s_2_4  + 2.467325 s_2_3  + 4.842351 s_2_8  + 2000.000000 r_2_4_5 > 35.315400
t_1_6 - t_1_5 - 1009.573628 s_1_5  + 4.786814 s_1_7  + 4.786814 s_1_8  > -953.760600
t_1_6 - t_2_5 - 1009.684703 s_2_5  + 4.842351 s_2_7  + 4.842351 s_2_8  > -951.838400
t_2_6 - t_1_5 - 1009.573628 s_1_5  + 4.786814 s_1_7  + 4.786814 s_1_8  > -953.760600
t_2_6 - t_2_5 - 1009.684703 s_2_5  + 4.842351 s_2_7  + 4.842351 s_2_8  > -951.838400
t_1_5 - t_1_7 - 1000.000000 s_1_7  > -859.118200
t_1_5 - t_2_7 - 1000.000000 s_2_7  > -888.248200
t_2_5 - t_1_7 - 1000.000000 s_1_7  > -859.118200
t_2_5 - t_2_7 - 1000.000000 s_2_7  > -888.248200
t_1_5 - t_1_8 - 1000.000000 s_1_8  > -859.123400
t_1_5 - t_2_8 - 1000.000000 s_2_8  > -887.901800
t_2_5 - t_1_8 - 1000.000000 s_1_8  > -859.123400
t_2_5 - t_2_8 - 1000.000000 s_2_8  > -887.901800
s_1_7 + s_1_2 + 1000 r_1_2_7 >= 2
- s_1_7 - s_1_2 - 1000 r_1_2_7 >= -1001
t_1_7 - t_1_2 + 1000.000000 u_1_2_7 - 4.786814 s_1_2  + 4.786814 s_1_8  + 2000.000000 r_1_2_7 > 42.554200
s_2_7 + s_2_2 + 1000 r_2_2_7 >= 2
- s_2_7 - s_2_2 - 1000 r_2_2_7 >= -1001
t_2_7 - t_2_2 + 1000.000000 u_2_2_7 - 4.842351 s_2_2  + 4.842351 s_2_8  + 2000.000000 r_2_2_7 > 44.940800
s_1_7 + s_1_3 + 1000 r_1_3_7 >= 2
- s_1_7 - s_1_3 - 1000 r_1_3_7 >= -1001
t_1_7 - t_1_3 + 1000.000000 u_1_3_7 - 4.786814 s_1_3  + 4.786814 s_1_8  + 2000.000000 r_1_3_7 > 62.122800
s_2_7 + s_2_3 + 1000 r_2_3_7 >= 2
- s_2_7 - s_2_3 - 1000 r_2_3_7 >= -1001
t_2_7 - t_2_3 + 1000.000000 u_2_3_7 - 4.842351 s_2_3  + 4.842351 s_2_8  + 2000.000000 r_2_3_7 > 67.144600
s_1_7 + s_1_4 + 1000 r_1_4_7 >= 2
- s_1_7 - s_1_4 - 1000 r_1_4_7 >= -1001
t_1_7 - t_1_4 + 1000.000000 u_1_4_7 - 7.579584 s_1_4  + 2.792770 s_1_3  + 4.786814 s_1_8  + 2000.000000 r_1_4_7 > 32.269200
s_2_7 + s_2_4 + 1000 r_2_4_7 >= 2
- s_2_7 - s_2_4 - 1000 r_2_4_7 >= -1001
t_2_7 - t_2_4 + 1000.000000 u_2_4_7 - 7.309677 s_2_4  + 2.467325 s_2_3  + 4.842351 s_2_8  + 2000.000000 r_2_4_7 > 35.315400
s_1_7 + s_1_8 + 1000 r_1_7_8 >= 2
- s_1_7 - s_1_8 - 1000 r_1_7_8 >= -1001
t_1_7 - t_1_8 - 1000.000000 u_1_7_8 - 0.000000 s_1_8  + 2000.000000 r_1_7_8 > -859.123400
s_2_7 + s_2_8 + 1000 r_2_7_8 >= 2
- s_2_7 - s_2_8 - 1000 r_2_7_8 >= -1001
t_2_7 - t_2_8 - 1000.000000 u_2_7_8 - 0.000000 s_2_8  + 2000.000000 r_2_7_8 > -887.901800
s_1_8 + s_1_1 + 1000 r_1_1_8 >= 2
- s_1_8 - s_1_1 - 1000 r_1_1_8 >= -1001
t_1_8 - t_1_1 + 1000.000000 u_1_1_8 - 4.786814 s_1_1  + 4.786814 s_1_7  + 2000.000000 r_1_1_8 > 37.820800
s_2_8 + s_2_1 + 1000 r_2_1_8 >= 2
- s_2_8 - s_2_1 - 1000 r_2_1_8 >= -1001
t_2_8 - t_2_1 + 1000.000000 u_2_1_8 - 4.842351 s_2_1  + 4.842351 s_2_7  + 2000.000000 r_2_1_8 > 40.129900
s_1_8 + s_1_7 + 1000 r_1_7_8 >= 2
- s_1_8 - s_1_7 - 1000 r_1_7_8 >= -1001
t_1_8 - t_1_7 + 1000.000000 u_1_7_8 - 0.000000 s_1_7  + 2000.000000 r_1_7_8 > 140.881800
s_2_8 + s_2_7 + 1000 r_2_7_8 >= 2
- s_2_8 - s_2_7 - 1000 r_2_7_8 >= -1001
t_2_8 - t_2_7 + 1000.000000 u_2_7_8 - 0.000000 s_2_7  + 2000.000000 r_2_7_8 > 111.751800
Binary
s_1_1
s_2_1
s_1_2
s_2_2
s_1_3
s_2_3
s_1_4
s_2_4
s_1_5
s_2_5
s_1_6
s_2_6
s_1_7
s_2_7
s_1_8
s_2_8
u_1_1_2
r_1_1_2
u_2_1_2
r_2_1_2
u_1_1_3
r_1_1_3
u_2_1_3
r_2_1_3
u_1_1_4
r_1_1_4
u_2_1_4
r_2_1_4
u_1_1_5
r_1_1_5
u_2_1_5
r_2_1_5
u_1_1_8
r_1_1_8
u_2_1_8
r_2_1_8
u_1_2_3
r_1_2_3
u_2_2_3
r_2_2_3
u_1_2_4
r_1_2_4
u_2_2_4
r_2_2_4
u_1_2_5
r_1_2_5
u_2_2_5
r_2_2_5
u_1_2_7
r_1_2_7
u_2_2_7
r_2_2_7
u_1_3_5
r_1_3_5
u_2_3_5
r_2_3_5
u_1_3_7
r_1_3_7
u_2_3_7
r_2_3_7
u_1_4_5
r_1_4_5
u_2_4_5
r_2_4_5
u_1_4_7
r_1_4_7
u_2_4_7
r_2_4_7
u_1_7_8
r_1_7_8
u_2_7_8
r_2_7_8

End
